# -- Non-bonded interactions --
pair_coeff      1     1       0.140000   3.215000
pair_coeff 1 2 0.000000 0.000000
pair_coeff      2     2       0.000000   0.000000

# -- harmonic bondType parameter  --
bond_coeff      1               600.0000    0.960000

# -- harmonic angleType parameter  --
angle_coeff     1               75.0000  109.500000
