units           real
boundary        p p p
atom_style      full
pair_style      lj/cut/coul/long 10.0
pair_modify     mix geometric
special_bonds   lj/coul 0.0 0.0 0.5
kspace_style    pppm 1.0e-4
bond_style      harmonic
angle_style     harmonic
